18 20
4 10 1
10 2 2
4 2 1
10 10 1
2 7 1
10 9 1
6 5 1
5 7 1
7 1 2
3 5 1
9 3 1
4 9 1
3 4 1
2 2 1
9 4 1
8 2 1
1 1 1
4 4 1
30 30 
30 30 
30 30 
30 30 
30 30 
30 30 
30 30 
30 30 
30 30 
30 30 
30 30 
30 30 
30 30 
30 30 
30 30 
30 30 
30 30 
30 30 
30 30 
30 30 
